c 
c MolecularSimulation 0.9.3
c Simulation written: Jan 13 2012 -- 15:17:57
c Test: Distribution
c Input: ./data/testCNF/SWEEP_R2_K3_N20_M32_S000.cnf
c 
s SATISFIABLE
v 1 2 3 4 5 -6 7 -8 10 -11 12 -13 14 -15 -16 -17 -18 -19 20 0
c algorithmTime:  260
c solutionMemory: 94936
c mixCount:       93
c extractCount:   0
c appendCount:    4766805
c splitCount:     93
c spliceCount:    2170653
c purifyCount:    31
c 
